(set-info :smt-lib-version 2.6)
(set-logic QF_S)
(set-info :source |
Generated by: Shaoke Cui
Generated on: 2025-04-10
Application: Using String Solvers to solve string matching problems
Target solver: cvc5, OSTRICH, Z3, Z3alpha, Z3-noodler
Benchmarks for substring matching problem, which needs to determine whether the pattern string exists in the text string.
|)
(set-info :license "https://creativecommons.org/licenses/by/4.0/")
(set-info :category "crafted")
(set-info :status sat)
(declare-fun a1() String)
(declare-fun a2() String)
(declare-fun a3() String)
(declare-fun a4() String)
(assert (= a1 ">>>>>>>>>>>>>>>>>>>>>>>>>>>>>>>>>>>>>>>>>>>>>>>>>>>>>>>>>>>>>>>>>>>>>>>>>>>>>>>>>>>>>>>>>>>>>>>>>>>>>>>>>>>>>>>>>>>>>>>>>>>>>>>>>>>>>>>>>>>>>>>>>>>>>"))
(assert (= a2 ">>>>>>>>>>>>>>>>>>>>>>>>>>>>>>>>>>>>>>>>>>>>>>>>>>>>>>>>>>>>>>>>>>>>>>>>>>>>>>>>>>>>>>>>>>>>>>>>>>>>>>>>>>>>>>>>>>>>>>>>>>>>>>>>>>>>>>>>>>>>>>>>>>>>>"))
(assert (= a3 ">>>>>>>>>>>>>>>>>>>>>>>>>>>>>>>>>>>>>>>>>>>>>>>>>>>>>>>>>>>>>>>>>>>>>>>>>>>>>>>>>>>>>>>>>>>>>>>>>>>>>>>>>>>>>>>>>>>>>>>>>>>>>>>>>>>>>>>>>>>>>>>>>>"))
(assert (= a4 ">>>>>>>>>>>>>>>>>>>>>>>>>>>>>>>>>>>>>>>>>>>>>>>>>>>>>>>>>>>>>>>>>>>>>>>>>>>>>>>>>>>>>>>>>>>>>>>>>>>>>>>>>>>>>>>>>>>>>>>>>>>>>>>>>>>>>>>>>>>>>>>>>>"))
(assert (str.contains (str.++ a2 a1 a1 a2 a2 a2 a1 a2 a1 a2 a1 a2 a2 a2 a2 a1 a2 a2 a2 a1 a2 a1 a2 a1 a2 a1 a1 a1 a1 a1 a2 a1 a1 a2 a1 a1 a1 a1 a2 a1 a1 a2 a2 a1 a1 a1 a1 a1 a1 a2 a1 a2 a1 a2 a2 a1 a1 a2 a2 a1 a1 a2 a1 a1 a2 a1 a1 a1 a2 a2 a2 a2 a1 a1 a1 a2 a1 a1 a1 a1 a2 a1 a2 a1 a1 a1 a1 a2 a2 a1 a2 a2 a2 a2 a1 a2 a1 a1 a2 a2 a2 a1 a2 a2 a1 a2 a2 a2 a2 a2 a1 a2 a1 a2 a1 a1 a2 a1 a2 a2 a2 a2 a2 a2 a2 a1 a1 a2 a1 a1 a1 a2 a2 a1 a1 a1 a1 a1 a1 a2 a1 a2 a1 a1 a2 a1 a2 a2 a1 a2 a1 a2 a2 a1 a1 a1 a2 a1 a1 a1 a2 a2 a2 a1 a1 a2 a1 a1 a1 a2 a1 a1 a1 a1 a2 a2 a2 a1 a1 a2 a1 a1 a1 a2 a2 a2 a2 a1 a1 a1 a1 a2 a2 a2 a1 a2 a1 a2 a2 a2 a2 a1 a1 a1 a1 a2 a1 a2 a2 a2 a2 a2 a1 a1 a2 a2 a2 a1 a1 a2 a1 a1 a1 a2 a2 a1 a1 a1 a1 a1 a2 a2 a1 a1 a1 a2 a2 a1 a1 a1 a2 a2 a2 a1 a1 a1 a2 a1 a1 a1 a1 a1 a1 a2 a1 a2 a2 a1 a2 a1 a1 a1 a1 a1 a2 a1 a2 a2 a1 a2 a2 a1 a1 a1 a2 a2 a1 a2 a1 a1 a2 a2 a2 a2 a1 a1 a2 a2 a2 a2 a1 a1 a2 a2 a1 a2 a2 a1 a2 a1 a2 a1 a2 a1 a1 a2 a2 a2 a2 a1 a1 a2 a1 a2 a2 a1 a2 a1 a2 a2 a1 a2 a1 a1 a2 a2 a1 a1 a1 a1 a2 a2 a1 a1 a1 a1 a1 a2 a1 a1 a2 a2 a2 a1 a1 a1 a2 a1 a2 a2 a1 a1 a2 a1 a2 a1 a1 a1 a2 a2 a1 a2 a1 a1 a2 a2 a1 a2 a2 a2 a1 a1 a1 a1 a1 a2 a2 a2 a1 a2 a1 a1 a1 a2 a1 a2 a1 a1 a1 a2 a1 a2 a2 a2 a2 a2 a1 a1 a1 a1 a1 a1 a2 a2 a2 a2 a2 a1 a1 a2 a2 a1 a1 a1 a2 a2 a1 a1 a1 a2 a2 a1 a1 a1 a2 a2 a1 a2 a2 a1 a1 a2 a1 a1 a1 a2 a2 a2 a2 a2 a2 a1 a1 a2 a2 a1 a1 a2 a2 a2 a2 a1 a1 a1 a1 a1 a2 a1 a2 a2 a1 a1 a1 a2 a1 a1 a1 a2 a2 a1 a2 a1 a1 a2 a1 a1 a1 a1 a2 a1 a2 a2 a1 a2 a2 a1 a1 a1 a1 a1 a2 a2 a1 a1 a1 a1 a2 a2 a1 a2 a2 a2 a1 a1 a1 a1 a1 a1 a1 a2 a1 a2 a1 a1 a2 a1 a1 a2 a1 a2 a1 a2 a2 a2 a1 a2 a1 a1 a2 a1 a1 a1 a2 a1 a1 a2 a1 a2 a2 a1 a1 a2 a1 a2 a2 a2 a2 a1 a1 a1 a1 a2 a1 a1 a2 a1 a1 a2 a2 a1 a2 a2 a1 a1 a2 a2 a2 a1 a2 a2 a2 a2 a1 a1 a1 a2 a1 a1 a1 a2 a2 a2 a2 a1 a1 a2 a2 a2 a1 a2 a1 a1 a1 a2 a1 a1 a1 a1 a1 a1 a1 a1 a1 a2 a1 a1 a2 a2 a2 a1 a1 a1 a1 a1 a2 a2 a1 a1 a1 a1 a1 a1 a2 a2 a1 a2 a2 a1 a1 a1 a1 a1 a2 a2 a2 a2 a1 a1 a2 a2 a1 a1 a2 a1 a2 a1 a2 a1 a2 a1 a2 a1 a1 a2 a2 a2 a1 a1 a1 a1 a2 a1 a2 a2 a1 a1 a1 a2 a2 a1 a1 a2 a1 a2 a1 a1 a1 a2 a2 a2 a1 a2 a2 a1 a2 a1 a2 a2 a1 a2 a2 a2 a1 a2 a2 a1 a1 a1 a2 a1 a1 a1 a1 a1 a1 a1 a1 a2 a1 a2 a1 a2 a2 a2 a1 a2 a1 a1 a1 a1 a1 a1 a2 a1 a2 a1 a1 a1 a1 a1 a1 a2 a2 a1 a1 a2 a1 a1 a1 a2 a2 a1 a1 a1 a2 a2 a2 a1 a2 a2 a1 a1 a2 a2 a1 a2 a1 a2 a1 a1 a2 a2 a2 a2 a1 a2 a1 a1 a2 a2 a1 a1 a1 a1 a2 a1 a1 a2 a1 a2 a1 a2 a2 a1 a1 a2 a2 a2 a2 a2 a1 a1 a1 a2 a2 a1 a2 a1 a2 a1 a2 a1 a1 a1 a1 a2 a2 a2 a1 a1 a1 a1 a1 a2 a1 a2 a1 a1 a2 a2 a2 a2 a1 a2 a1 a2 a1 a1 a2 a2 a1 a2 a2 a1 a1 a1 a1 a2 a1 a1 a1 a1 a1 a2 a1 a2 a2 a1 a2 a1 a1 a1 a1 a2 a1 a2 a2 a1 a2 a1 a2 a2 a2 a2 a2 a2 a2 a1 a2 a1 a2 a1 a1 a1 a1 a1 a1 a1 a1 a2 a1 a2 a2 a1 a1 a1 a2 a1 a2 a2 a1 a1 a1 a1 a1 a2 a2 a2 a1 a2 a1 a1 a1 a2 a2 a1 a1 a2 a2 a1 a2 a2 a1 a2 a1 a1 a2 a2 a1 a2 a2 a2 a2 a1 a2 a1 a1 a1 a1 a2 a2 a2 a2 a1 a1 a2 a2 a2 a2 a1 a2 a1 a1 a1 a1 a2 a1 a1 a1 a2 a1 a1 a2 a2 a1 a2 a1 a1 a2 a2 a1 a1 a2 a2 a1 a1 a2 a1 a2 a2 a1 a1 a2 a2 a1 a2 a2 a2 a1 a1 a1 a2 a1 a1 a1 a1 a1 a2 a2 a1 a2 a1 a1 a2 a2 a2 a2 a2 a2 a1 a1 a2 a2 a1 a2 a1 a2 a2 a2 a2 a2 a1 a2 a2 a2 a1 a1 a2 a1 a1 a2 a2 a2 a1 a1 a2 a2 a1 a1 a2 a1 a2 a2 a1 a1 a1 a2 a2 a1 a2 a1 a2 a1 a1 a2 a1 a2 a1 a1 a1 a2 a1 a1 a2 a2 a2 a1 a1 a1 a2 a2 a1 a1 a1 a1 a1 a2 a2 a2 a1 a1 a1 a1 a2 a2 a2 a2 a1 a1 a1 a1 a2 a2 a1 a2 a2 a2 a2 a1 a1 a2 a2 a2 a1 a2 a2 a2 a2 a1 a1 a1 a2 a2 a2  "1" a3 a3 a3 a3 a3 a4 a3 a3 a4 a3 a4 a4 a4 a4 a4 a3 a3 a4 a4 a3 a4 a3 a4 a3 a3 a3 a4 a3 a4 a4 a3 a4 a3 a4 a3 a4 a4 a4 a3 a3 a4 a4 a4 a3 a4 a4 a4 a3 a4 a3 a3 a4 a4 a4 a3 a3 a3 a4 a4 a4 a3 a4 a4 a4 a3 a4 a4 a4 a4 a3 a4 a4 a4 a4 a4 a4 a3 a3 a4 a4 a3 a3 a4 a4 a3 a3 a4 a4 a3 a4 a3 a4 a4 a3 a4 a3 a4 a3 a3 a4 a3 a3 a3 a3 a3 a3 a3 a3 a3 a4 a4 a4 a4 a3 a4 a4 a4 a3 a3 a3 a3 a4 a3 a3 a3 a3 a4 a4 a4 a3 a4 a4 a3 a4 a3 a4 a4 a3 a3 a3 a4 a4 a3 a4 a4 a4 a4 a3 a4 a4 a3 a4 a3 a3 a3 a4 a4 a4 a4 a3 a3 a4 a3 a4 a4 a3 a4 a3 a3 a3 a3 a4 a3 a4 a4 a3 a3 a4 a4 a3 a3 a3 a3 a3 a3 a3 a3 a3 a4 a3 a3 a4 a3 a3 a4 a3 a4 a4 a3 a3 a4 a3 a3 a4 a3 a4 a4 a4 a4 a3 a4 a3 a3 ) (str.++ a4 a3 a4 a4 a4 a3 a3 a4 a4 a4 a4 a4 a3 a3 a4 a4 a4 a4 a4 a4 a3 a4 a4 a4 a3 a4 a3 a4 a4 a3 a4 a3 a4 a4 a3 a3 a4 a3 a3 a3 a3 a3 a4 a4 a3 a3 a3 a4 a3 a3 a3 a4 a4 a3 a3 a3 a4 a3 a3 a4 a3 a3 a4 a4 a4 a4 a4 a4 a4 a4 a4 a4 a4 a4 a3 a4 a4 a3 a4 a4 a4 a3 a3 a4 a3 a4 a4 a3 a4 a3 a3 a4 a3 a4 a3 a4 a4 a3 a4 a3 a3 a3 a3 a4 a3 a3 a4 a4 a4 a4 a4 a3 a3 a4 a4 a4 a4 a4 a3 a4 a4 a4 a4 a3 a4 a4 a3 a3 a4 a4 a3 a4 a3 a3 a4 a4 a4 a3 a3 a3 a4 a3 a3 a4 a4 a4 a3 a3 a3 a3 a3 a4 a3 a3 a4 a4 a3 a4 a3 a4 a3 a4 a4 a3 a4 a4 a3 a3 a3 a4 a3 a4 a4 a4 a4 a4 a4 a4 a3 a3 a3 a4 a3 a3 a3 a4 a3 a3 a4 a3 a4 a4 a3 a4 a3 a3 a3 a3 a4 a3 a4 a3 a3 a4 a3 a3 a3 a4 a4 a3  "1")))
(check-sat)
(exit)
